300
[30,31,33,34,35,36,37,38,39,41,42,43,44,45,46,47,48,49,50,51,52,53,54,56,57,58,59,60,61,62,63,64,66,67,68,69,70,72,73,74,75,76,77,78,79,80,82,83,84,85,87,88,89,90,91,92,93,94,95,97,98,99,100,101,102,104,105,106,107,108,110,111,112,113,114,115,116,117,118,119,120,121,122,123,124,126,127,128,129,130,131,133,134,135,136,137,138,139,140,141,142,143,144,145,146,147,148,149,150,151,152,154,155,156,157,158,159,160,162,163,164,165,166,167,168,169,170,171,172,173,174,175,176,177,178,179,181,182,183,184,185,186,187,188,189,190,191,192,193,194,195,197,198,200,201,202,203,204,205,206,207,208,209,210]
[2,4,1,4,2,1,1,2,2,1,3,1,2,2,1,3,5,1,1,1,3,3,1,1,1,5,3,3,2,1,4,5,5,3,4,4,1,2,2,4,2,3,3,2,3,3,2,2,3,1,1,3,3,4,2,4,2,2,1,2,1,1,1,1,2,4,5,3,1,1,4,7,1,2,4,2,3,3,2,1,5,3,3,3,3,1,1,3,4,1,5,1,4,3,4,3,3,3,2,1,2,4,2,1,3,1,3,3,4,1,3,1,1,3,1,1,3,3,2,1,2,4,1,2,2,2,4,3,5,2,2,4,1,2,2,4,4,4,1,3,2,3,4,2,1,3,3,1,1,6,2,1,2,1,2,2,3,1,4,2,2,1,2,2]
